(set-info :source |printed by MathSAT|)
(declare-fun call__DRAGON_.ite7 () Int)
(declare-fun call__DRAGON_.ite49 () Int)
(declare-fun param_e02 () Bool)
(declare-fun call__DRAGON_.ite34 () Int)
(declare-fun call__DRAGON_.ite37 () Int)
(declare-fun env () Bool)
(declare-fun call__DRAGON_.ite42 () Int)
(declare-fun param_e11 () Bool)
(declare-fun call__DRAGON_.ite60 () Int)
(declare-fun call__DRAGON_.ite48 () Int)
(declare-fun param_e12 () Bool)
(declare-fun call__DRAGON_.ite13 () Int)
(declare-fun call__DRAGON_.ite2 () Int)
(declare-fun call__DRAGON_.ite52 () Int)
(declare-fun call__DRAGON_.ite32 () Int)
(declare-fun param_e09 () Bool)
(declare-fun call__DRAGON_.mem_init () Int)
(declare-fun call__DRAGON_.ite40 () Int)
(declare-fun call__DRAGON_.ite30 () Int)
(declare-fun dirty () Int)
(declare-fun call__DRAGON_.flby5 () Int)
(declare-fun call__DRAGON_.ite39 () Int)
(declare-fun call__DRAGON_.flby3 () Int)
(declare-fun call__DRAGON_.ite12 () Int)
(declare-fun call__DRAGON_.ite51 () Int)
(declare-fun call__DRAGON_.erreur () Bool)
(declare-fun call__DRAGON_.ite20 () Int)
(declare-fun call__DRAGON_.ite28 () Int)
(declare-fun call__DRAGON_.ite4 () Int)
(declare-fun call__DRAGON_.ite25 () Int)
(declare-fun call__DRAGON_.ite19 () Int)
(declare-fun call__DRAGON_.ite57 () Int)
(declare-fun call__DRAGON_.flby6 () Int)
(declare-fun shared_dirty () Int)
(declare-fun call__DRAGON_.ite11 () Int)
(declare-fun param_e03 () Bool)
(declare-fun call__DRAGON_.ite22 () Int)
(declare-fun call__DRAGON_.ite56 () Int)
(declare-fun call__DRAGON_.ite58 () Int)
(declare-fun call_Sofar.flby () Bool)
(declare-fun call__DRAGON_.flby4 () Int)
(declare-fun param_e06 () Bool)
(declare-fun call__DRAGON_.ite3 () Int)
(declare-fun call__DRAGON_.ite46 () Int)
(declare-fun param_e05 () Bool)
(declare-fun call__DRAGON_.shared () Int)
(declare-fun call__DRAGON_.dirty () Int)
(declare-fun call__DRAGON_.ite14 () Int)
(declare-fun call__DRAGON_.flby2 () Int)
(declare-fun call__DRAGON_.ite53 () Int)
(declare-fun call_Sofar.Sofar () Bool)
(declare-fun call__DRAGON_.ite21 () Int)
(declare-fun param_e08 () Bool)
(declare-fun call__DRAGON_.ite47 () Int)
(declare-fun call__DRAGON_.ite43 () Int)
(declare-fun call__DRAGON_.ite16 () Int)
(declare-fun call__DRAGON_.ite55 () Int)
(declare-fun call__DRAGON_.ite24 () Int)
(declare-fun call__DRAGON_.g08 () Bool)
(declare-fun call__DRAGON_.ite15 () Int)
(declare-fun call__DRAGON_.ite41 () Int)
(declare-fun call__DRAGON_.ite45 () Int)
(declare-fun erreur () Bool)
(declare-fun call__DRAGON_.g02 () Bool)
(declare-fun call__DRAGON_.ite31 () Int)
(declare-fun call__DRAGON_.ite59 () Int)
(declare-fun call__DRAGON_.g06 () Bool)
(declare-fun shared () Int)
(declare-fun call__DRAGON_.invalid () Int)
(declare-fun call__DRAGON_.ite27 () Int)
(declare-fun param_e04 () Bool)
(declare-fun call__DRAGON_.ite8 () Int)
(declare-fun call__DRAGON_.ite9 () Int)
(declare-fun call__DRAGON_.ite23 () Int)
(declare-fun call__DRAGON_.shared_dirty () Int)
(declare-fun call__DRAGON_.ite18 () Int)
(declare-fun call__DRAGON_.ite17 () Int)
(declare-fun call__DRAGON_.g05 () Bool)
(declare-fun call__DRAGON_.ite35 () Int)
(declare-fun call__DRAGON_.ite36 () Int)
(declare-fun exclusive () Int)
(declare-fun call__DRAGON_.ite29 () Int)
(declare-fun call__DRAGON_.ite61 () Int)
(declare-fun _OK_ () Bool)
(declare-fun param_init_invalid () Int)
(declare-fun param_e07 () Bool)
(declare-fun call__DRAGON_.ite50 () Int)
(declare-fun param_e10 () Bool)
(declare-fun call__DRAGON_.ite44 () Int)
(declare-fun call__DRAGON_.g04 () Bool)
(declare-fun call__DRAGON_.ite38 () Int)
(declare-fun call_excludes12.excludes () Bool)
(declare-fun call__DRAGON_.ite6 () Int)
(declare-fun call__DRAGON_.ite54 () Int)
(declare-fun call__DRAGON_.ite10 () Int)
(declare-fun call__DRAGON_.exclusive () Int)
(declare-fun call__DRAGON_.flby () Int)
(declare-fun param_e01 () Bool)
(declare-fun call__DRAGON_.ite () Bool)
(declare-fun call__DRAGON_.ite33 () Int)
(declare-fun call__DRAGON_.ite5 () Int)
(declare-fun call__DRAGON_.ite26 () Int)
(declare-fun invalid () Int)
(define-fun .def_1721 () Bool (= call_Sofar.flby call_Sofar.Sofar))
(define-fun .def_1530 () Bool (not param_e02))
(define-fun .def_1511 () Bool (not param_e01))
(define-fun .def_1619 () Bool (and .def_1511 .def_1530))
(define-fun .def_1570 () Bool (not param_e03))
(define-fun .def_1620 () Bool (and .def_1570 .def_1619))
(define-fun .def_1586 () Bool (not param_e04))
(define-fun .def_1621 () Bool (and .def_1586 .def_1620))
(define-fun .def_1377 () Bool (not param_e05))
(define-fun .def_1622 () Bool (and .def_1377 .def_1621))
(define-fun .def_1361 () Bool (not param_e06))
(define-fun .def_1623 () Bool (and .def_1361 .def_1622))
(define-fun .def_1397 () Bool (not param_e07))
(define-fun .def_1624 () Bool (and .def_1397 .def_1623))
(define-fun .def_1415 () Bool (not param_e08))
(define-fun .def_1625 () Bool (and .def_1415 .def_1624))
(define-fun .def_1257 () Bool (not param_e09))
(define-fun .def_1626 () Bool (and .def_1257 .def_1625))
(define-fun .def_1263 () Bool (not param_e10))
(define-fun .def_1627 () Bool (and .def_1263 .def_1626))
(define-fun .def_1270 () Bool (not param_e11))
(define-fun .def_1628 () Bool (and .def_1270 .def_1627))
(define-fun .def_1277 () Bool (not param_e12))
(define-fun .def_1706 () Bool (and .def_1277 .def_1628))
(define-fun .def_1695 () Bool (and param_e01 .def_1530))
(define-fun .def_1696 () Bool (and .def_1570 .def_1695))
(define-fun .def_1697 () Bool (and .def_1586 .def_1696))
(define-fun .def_1698 () Bool (and .def_1377 .def_1697))
(define-fun .def_1699 () Bool (and .def_1361 .def_1698))
(define-fun .def_1700 () Bool (and .def_1397 .def_1699))
(define-fun .def_1701 () Bool (and .def_1415 .def_1700))
(define-fun .def_1702 () Bool (and .def_1257 .def_1701))
(define-fun .def_1703 () Bool (and .def_1263 .def_1702))
(define-fun .def_1704 () Bool (and .def_1270 .def_1703))
(define-fun .def_1705 () Bool (and .def_1277 .def_1704))
(define-fun .def_1707 () Bool (or .def_1705 .def_1706))
(define-fun .def_1684 () Bool (and .def_1511 param_e02))
(define-fun .def_1685 () Bool (and .def_1570 .def_1684))
(define-fun .def_1686 () Bool (and .def_1586 .def_1685))
(define-fun .def_1687 () Bool (and .def_1377 .def_1686))
(define-fun .def_1688 () Bool (and .def_1361 .def_1687))
(define-fun .def_1689 () Bool (and .def_1397 .def_1688))
(define-fun .def_1690 () Bool (and .def_1415 .def_1689))
(define-fun .def_1691 () Bool (and .def_1257 .def_1690))
(define-fun .def_1692 () Bool (and .def_1263 .def_1691))
(define-fun .def_1693 () Bool (and .def_1270 .def_1692))
(define-fun .def_1694 () Bool (and .def_1277 .def_1693))
(define-fun .def_1708 () Bool (or .def_1694 .def_1707))
(define-fun .def_1674 () Bool (and param_e03 .def_1619))
(define-fun .def_1675 () Bool (and .def_1586 .def_1674))
(define-fun .def_1676 () Bool (and .def_1377 .def_1675))
(define-fun .def_1677 () Bool (and .def_1361 .def_1676))
(define-fun .def_1678 () Bool (and .def_1397 .def_1677))
(define-fun .def_1679 () Bool (and .def_1415 .def_1678))
(define-fun .def_1680 () Bool (and .def_1257 .def_1679))
(define-fun .def_1681 () Bool (and .def_1263 .def_1680))
(define-fun .def_1682 () Bool (and .def_1270 .def_1681))
(define-fun .def_1683 () Bool (and .def_1277 .def_1682))
(define-fun .def_1709 () Bool (or .def_1683 .def_1708))
(define-fun .def_1665 () Bool (and param_e04 .def_1620))
(define-fun .def_1666 () Bool (and .def_1377 .def_1665))
(define-fun .def_1667 () Bool (and .def_1361 .def_1666))
(define-fun .def_1668 () Bool (and .def_1397 .def_1667))
(define-fun .def_1669 () Bool (and .def_1415 .def_1668))
(define-fun .def_1670 () Bool (and .def_1257 .def_1669))
(define-fun .def_1671 () Bool (and .def_1263 .def_1670))
(define-fun .def_1672 () Bool (and .def_1270 .def_1671))
(define-fun .def_1673 () Bool (and .def_1277 .def_1672))
(define-fun .def_1710 () Bool (or .def_1673 .def_1709))
(define-fun .def_1657 () Bool (and param_e05 .def_1621))
(define-fun .def_1658 () Bool (and .def_1361 .def_1657))
(define-fun .def_1659 () Bool (and .def_1397 .def_1658))
(define-fun .def_1660 () Bool (and .def_1415 .def_1659))
(define-fun .def_1661 () Bool (and .def_1257 .def_1660))
(define-fun .def_1662 () Bool (and .def_1263 .def_1661))
(define-fun .def_1663 () Bool (and .def_1270 .def_1662))
(define-fun .def_1664 () Bool (and .def_1277 .def_1663))
(define-fun .def_1711 () Bool (or .def_1664 .def_1710))
(define-fun .def_1650 () Bool (and param_e06 .def_1622))
(define-fun .def_1651 () Bool (and .def_1397 .def_1650))
(define-fun .def_1652 () Bool (and .def_1415 .def_1651))
(define-fun .def_1653 () Bool (and .def_1257 .def_1652))
(define-fun .def_1654 () Bool (and .def_1263 .def_1653))
(define-fun .def_1655 () Bool (and .def_1270 .def_1654))
(define-fun .def_1656 () Bool (and .def_1277 .def_1655))
(define-fun .def_1712 () Bool (or .def_1656 .def_1711))
(define-fun .def_1644 () Bool (and param_e07 .def_1623))
(define-fun .def_1645 () Bool (and .def_1415 .def_1644))
(define-fun .def_1646 () Bool (and .def_1257 .def_1645))
(define-fun .def_1647 () Bool (and .def_1263 .def_1646))
(define-fun .def_1648 () Bool (and .def_1270 .def_1647))
(define-fun .def_1649 () Bool (and .def_1277 .def_1648))
(define-fun .def_1713 () Bool (or .def_1649 .def_1712))
(define-fun .def_1639 () Bool (and param_e08 .def_1624))
(define-fun .def_1640 () Bool (and .def_1257 .def_1639))
(define-fun .def_1641 () Bool (and .def_1263 .def_1640))
(define-fun .def_1642 () Bool (and .def_1270 .def_1641))
(define-fun .def_1643 () Bool (and .def_1277 .def_1642))
(define-fun .def_1714 () Bool (or .def_1643 .def_1713))
(define-fun .def_1635 () Bool (and param_e09 .def_1625))
(define-fun .def_1636 () Bool (and .def_1263 .def_1635))
(define-fun .def_1637 () Bool (and .def_1270 .def_1636))
(define-fun .def_1638 () Bool (and .def_1277 .def_1637))
(define-fun .def_1715 () Bool (or .def_1638 .def_1714))
(define-fun .def_1632 () Bool (and param_e10 .def_1626))
(define-fun .def_1633 () Bool (and .def_1270 .def_1632))
(define-fun .def_1634 () Bool (and .def_1277 .def_1633))
(define-fun .def_1716 () Bool (or .def_1634 .def_1715))
(define-fun .def_1630 () Bool (and param_e11 .def_1627))
(define-fun .def_1631 () Bool (and .def_1277 .def_1630))
(define-fun .def_1717 () Bool (or .def_1631 .def_1716))
(define-fun .def_1629 () Bool (and param_e12 .def_1628))
(define-fun .def_1718 () Bool (or .def_1629 .def_1717))
(define-fun .def_1719 () Bool (= call_excludes12.excludes .def_1718))
(define-fun .def_1617 () Bool (= call__DRAGON_.mem_init call__DRAGON_.flby))
(define-fun .def_1615 () Bool (= call__DRAGON_.erreur call__DRAGON_.ite))
(define-fun .def_1613 () Bool (= call__DRAGON_.flby6 call__DRAGON_.invalid))
(define-fun .def_1611 () Bool (= call__DRAGON_.flby5 call__DRAGON_.dirty))
(define-fun .def_1609 () Bool (= call__DRAGON_.flby4 call__DRAGON_.shared_dirty))
(define-fun .def_1607 () Bool (= call__DRAGON_.flby3 call__DRAGON_.shared))
(define-fun .def_1604 () Bool (= call__DRAGON_.flby2 call__DRAGON_.exclusive))
(define-fun .def_1599 () Bool (<= 2 call__DRAGON_.exclusive))
(define-fun .def_1601 () Bool (not .def_1599))
(define-fun .def_1602 () Bool (or call__DRAGON_.ite .def_1601))
(define-fun .def_1598 () Bool (not call__DRAGON_.ite))
(define-fun .def_1600 () Bool (or .def_1598 .def_1599))
(define-fun .def_1603 () Bool (and .def_1600 .def_1602))
(define-fun .def_1605 () Bool (and .def_1603 .def_1604))
(define-fun .def_1593 () Bool (= call__DRAGON_.ite42 call__DRAGON_.ite43))
(define-fun .def_1594 () Bool (or param_e04 .def_1593))
(define-fun .def_1590 () Bool (= call__DRAGON_.ite43 call__DRAGON_.ite34))
(define-fun .def_1591 () Bool (or .def_1586 .def_1590))
(define-fun .def_1585 () Bool (= call__DRAGON_.ite23 call__DRAGON_.ite30))
(define-fun .def_1587 () Bool (or .def_1585 .def_1586))
(define-fun .def_1582 () Bool (= call__DRAGON_.ite29 call__DRAGON_.ite30))
(define-fun .def_1584 () Bool (or .def_1582 param_e04))
(define-fun .def_1588 () Bool (and .def_1584 .def_1587))
(define-fun .def_1592 () Bool (and .def_1588 .def_1591))
(define-fun .def_1595 () Bool (and .def_1592 .def_1594))
(define-fun .def_1578 () Bool (= call__DRAGON_.ite44 call__DRAGON_.ite43))
(define-fun .def_1579 () Bool (or param_e03 .def_1578))
(define-fun .def_1574 () Bool (= call__DRAGON_.ite44 call__DRAGON_.ite33))
(define-fun .def_1575 () Bool (or .def_1570 .def_1574))
(define-fun .def_1569 () Bool (= call__DRAGON_.ite9 call__DRAGON_.ite4))
(define-fun .def_1571 () Bool (or .def_1569 .def_1570))
(define-fun .def_1565 () Bool (= call__DRAGON_.ite8 call__DRAGON_.ite9))
(define-fun .def_1567 () Bool (or .def_1565 param_e03))
(define-fun .def_1572 () Bool (and .def_1567 .def_1571))
(define-fun .def_1576 () Bool (and .def_1572 .def_1575))
(define-fun .def_1580 () Bool (and .def_1576 .def_1579))
(define-fun .def_1561 () Bool (= call__DRAGON_.ite31 call__DRAGON_.ite30))
(define-fun .def_1562 () Bool (or param_e02 .def_1561))
(define-fun .def_1557 () Bool (= call__DRAGON_.ite22 call__DRAGON_.ite31))
(define-fun .def_1558 () Bool (or .def_1530 .def_1557))
(define-fun .def_1552 () Bool (= call__DRAGON_.ite20 call__DRAGON_.ite21))
(define-fun .def_1553 () Bool (or param_e02 .def_1552))
(define-fun .def_1549 () Bool (= call__DRAGON_.ite12 call__DRAGON_.ite21))
(define-fun .def_1550 () Bool (or .def_1530 .def_1549))
(define-fun .def_1544 () Bool (= call__DRAGON_.ite10 call__DRAGON_.ite9))
(define-fun .def_1545 () Bool (or param_e02 .def_1544))
(define-fun .def_1540 () Bool (= call__DRAGON_.ite3 call__DRAGON_.ite10))
(define-fun .def_1541 () Bool (or .def_1530 .def_1540))
(define-fun .def_1537 () Bool (= call__DRAGON_.ite59 call__DRAGON_.ite60))
(define-fun .def_1538 () Bool (or param_e02 .def_1537))
(define-fun .def_1534 () Bool (= call__DRAGON_.ite60 call__DRAGON_.ite47))
(define-fun .def_1535 () Bool (or .def_1530 .def_1534))
(define-fun .def_1529 () Bool (= call__DRAGON_.ite32 call__DRAGON_.ite45))
(define-fun .def_1531 () Bool (or .def_1529 .def_1530))
(define-fun .def_1526 () Bool (= call__DRAGON_.ite45 call__DRAGON_.ite44))
(define-fun .def_1528 () Bool (or .def_1526 param_e02))
(define-fun .def_1532 () Bool (and .def_1528 .def_1531))
(define-fun .def_1536 () Bool (and .def_1532 .def_1535))
(define-fun .def_1539 () Bool (and .def_1536 .def_1538))
(define-fun .def_1542 () Bool (and .def_1539 .def_1541))
(define-fun .def_1546 () Bool (and .def_1542 .def_1545))
(define-fun .def_1551 () Bool (and .def_1546 .def_1550))
(define-fun .def_1554 () Bool (and .def_1551 .def_1553))
(define-fun .def_1559 () Bool (and .def_1554 .def_1558))
(define-fun .def_1563 () Bool (and .def_1559 .def_1562))
(define-fun .def_1520 () Bool (= call__DRAGON_.ite11 call__DRAGON_.ite10))
(define-fun .def_1521 () Bool (or param_e01 .def_1520))
(define-fun .def_1516 () Bool (= call__DRAGON_.ite2 call__DRAGON_.ite11))
(define-fun .def_1517 () Bool (or .def_1511 .def_1516))
(define-fun .def_1510 () Bool (= call__DRAGON_.ite61 call__DRAGON_.ite46))
(define-fun .def_1512 () Bool (or .def_1510 .def_1511))
(define-fun .def_1506 () Bool (= call__DRAGON_.ite61 call__DRAGON_.ite60))
(define-fun .def_1508 () Bool (or .def_1506 param_e01))
(define-fun .def_1513 () Bool (and .def_1508 .def_1512))
(define-fun .def_1518 () Bool (and .def_1513 .def_1517))
(define-fun .def_1522 () Bool (and .def_1518 .def_1521))
(define-fun .def_1500 () Bool (= call__DRAGON_.ite55 call__DRAGON_.ite52))
(define-fun .def_1501 () Bool (or .def_1270 .def_1500))
(define-fun .def_1497 () Bool (= call__DRAGON_.ite54 call__DRAGON_.ite55))
(define-fun .def_1498 () Bool (or param_e11 .def_1497))
(define-fun .def_1502 () Bool (and .def_1498 .def_1501))
(define-fun .def_1493 () Bool (= call__DRAGON_.ite56 call__DRAGON_.ite51))
(define-fun .def_1494 () Bool (or .def_1263 .def_1493))
(define-fun .def_1490 () Bool (= call__DRAGON_.ite56 call__DRAGON_.ite55))
(define-fun .def_1491 () Bool (or param_e10 .def_1490))
(define-fun .def_1495 () Bool (and .def_1491 .def_1494))
(define-fun .def_1487 () Bool (= env call_Sofar.Sofar))
(define-fun .def_1482 () Bool (= call__DRAGON_.ite57 call__DRAGON_.ite50))
(define-fun .def_1483 () Bool (or .def_1257 .def_1482))
(define-fun .def_1479 () Bool (= call__DRAGON_.ite57 call__DRAGON_.ite56))
(define-fun .def_1480 () Bool (or param_e09 .def_1479))
(define-fun .def_1484 () Bool (and .def_1480 .def_1483))
(define-fun .def_1476 () Bool (= erreur call__DRAGON_.erreur))
(define-fun .def_1472 () Bool (= invalid call__DRAGON_.invalid))
(define-fun .def_1468 () Bool (= dirty call__DRAGON_.dirty))
(define-fun .def_1464 () Bool (= shared_dirty call__DRAGON_.shared_dirty))
(define-fun .def_1460 () Bool (= shared call__DRAGON_.shared))
(define-fun .def_1457 () Bool (= exclusive call__DRAGON_.exclusive))
(define-fun .def_1451 () Bool (<= 0 shared))
(define-fun .def_1449 () Bool (<= 0 exclusive))
(define-fun .def_1452 () Bool (and .def_1449 .def_1451))
(define-fun .def_1447 () Bool (not env))
(define-fun .def_1453 () Bool (or .def_1447 .def_1452))
(define-fun .def_1454 () Bool (= _OK_ .def_1453))
(define-fun .def_1441 () Bool (= call__DRAGON_.ite39 call__DRAGON_.ite40))
(define-fun .def_1442 () Bool (or param_e08 .def_1441))
(define-fun .def_1438 () Bool (= call__DRAGON_.ite37 call__DRAGON_.ite40))
(define-fun .def_1439 () Bool (or .def_1415 .def_1438))
(define-fun .def_1435 () Bool (= call__DRAGON_.ite27 call__DRAGON_.ite28))
(define-fun .def_1436 () Bool (or param_e08 .def_1435))
(define-fun .def_1432 () Bool (= call__DRAGON_.ite25 call__DRAGON_.ite28))
(define-fun .def_1433 () Bool (or .def_1415 .def_1432))
(define-fun .def_1429 () Bool (= call__DRAGON_.ite17 call__DRAGON_.ite18))
(define-fun .def_1430 () Bool (or param_e08 .def_1429))
(define-fun .def_1426 () Bool (= call__DRAGON_.ite18 call__DRAGON_.ite15))
(define-fun .def_1427 () Bool (or .def_1415 .def_1426))
(define-fun .def_1422 () Bool (= call__DRAGON_.ite7 call__DRAGON_.ite8))
(define-fun .def_1423 () Bool (or param_e08 .def_1422))
(define-fun .def_1419 () Bool (= call__DRAGON_.ite5 call__DRAGON_.ite8))
(define-fun .def_1420 () Bool (or .def_1415 .def_1419))
(define-fun .def_1414 () Bool (= call__DRAGON_.ite58 call__DRAGON_.ite49))
(define-fun .def_1416 () Bool (or .def_1414 .def_1415))
(define-fun .def_1410 () Bool (= call__DRAGON_.ite58 call__DRAGON_.ite57))
(define-fun .def_1412 () Bool (or .def_1410 param_e08))
(define-fun .def_1417 () Bool (and .def_1412 .def_1416))
(define-fun .def_1421 () Bool (and .def_1417 .def_1420))
(define-fun .def_1424 () Bool (and .def_1421 .def_1423))
(define-fun .def_1428 () Bool (and .def_1424 .def_1427))
(define-fun .def_1431 () Bool (and .def_1428 .def_1430))
(define-fun .def_1434 () Bool (and .def_1431 .def_1433))
(define-fun .def_1437 () Bool (and .def_1434 .def_1436))
(define-fun .def_1440 () Bool (and .def_1437 .def_1439))
(define-fun .def_1443 () Bool (and .def_1440 .def_1442))
(define-fun .def_1405 () Bool (= call__DRAGON_.ite41 call__DRAGON_.ite40))
(define-fun .def_1406 () Bool (or param_e07 .def_1405))
(define-fun .def_1401 () Bool (= call__DRAGON_.ite41 call__DRAGON_.ite36))
(define-fun .def_1402 () Bool (or .def_1397 .def_1401))
(define-fun .def_1396 () Bool (= call__DRAGON_.ite59 call__DRAGON_.ite48))
(define-fun .def_1398 () Bool (or .def_1396 .def_1397))
(define-fun .def_1392 () Bool (= call__DRAGON_.ite58 call__DRAGON_.ite59))
(define-fun .def_1394 () Bool (or .def_1392 param_e07))
(define-fun .def_1399 () Bool (and .def_1394 .def_1398))
(define-fun .def_1403 () Bool (and .def_1399 .def_1402))
(define-fun .def_1407 () Bool (and .def_1403 .def_1406))
(define-fun .def_1386 () Bool (= call__DRAGON_.ite42 call__DRAGON_.ite41))
(define-fun .def_1387 () Bool (or param_e05 .def_1386))
(define-fun .def_1382 () Bool (= call__DRAGON_.ite35 call__DRAGON_.ite42))
(define-fun .def_1383 () Bool (or .def_1377 .def_1382))
(define-fun .def_1376 () Bool (= call__DRAGON_.ite13 call__DRAGON_.ite20))
(define-fun .def_1378 () Bool (or .def_1376 .def_1377))
(define-fun .def_1373 () Bool (= call__DRAGON_.ite19 call__DRAGON_.ite20))
(define-fun .def_1375 () Bool (or .def_1373 param_e05))
(define-fun .def_1379 () Bool (and .def_1375 .def_1378))
(define-fun .def_1384 () Bool (and .def_1379 .def_1383))
(define-fun .def_1388 () Bool (and .def_1384 .def_1387))
(define-fun .def_1369 () Bool (= call__DRAGON_.ite29 call__DRAGON_.ite28))
(define-fun .def_1370 () Bool (or param_e06 .def_1369))
(define-fun .def_1365 () Bool (= call__DRAGON_.ite24 call__DRAGON_.ite29))
(define-fun .def_1366 () Bool (or .def_1361 .def_1365))
(define-fun .def_1360 () Bool (= call__DRAGON_.ite19 call__DRAGON_.ite14))
(define-fun .def_1362 () Bool (or .def_1360 .def_1361))
(define-fun .def_1356 () Bool (= call__DRAGON_.ite19 call__DRAGON_.ite18))
(define-fun .def_1358 () Bool (or .def_1356 param_e06))
(define-fun .def_1363 () Bool (and .def_1358 .def_1362))
(define-fun .def_1367 () Bool (and .def_1363 .def_1366))
(define-fun .def_1371 () Bool (and .def_1367 .def_1370))
(define-fun .def_1389 () Bool (and .def_1371 .def_1388))
(define-fun .def_1408 () Bool (and .def_1389 .def_1407))
(define-fun .def_1444 () Bool (and .def_1408 .def_1443))
(define-fun .def_1455 () Bool (and .def_1444 .def_1454))
(define-fun .def_1458 () Bool (and .def_1455 .def_1457))
(define-fun .def_1461 () Bool (and .def_1458 .def_1460))
(define-fun .def_1465 () Bool (and .def_1461 .def_1464))
(define-fun .def_1469 () Bool (and .def_1465 .def_1468))
(define-fun .def_1473 () Bool (and .def_1469 .def_1472))
(define-fun .def_1477 () Bool (and .def_1473 .def_1476))
(define-fun .def_1485 () Bool (and .def_1477 .def_1484))
(define-fun .def_1488 () Bool (and .def_1485 .def_1487))
(define-fun .def_1496 () Bool (and .def_1488 .def_1495))
(define-fun .def_1503 () Bool (and .def_1496 .def_1502))
(define-fun .def_1523 () Bool (and .def_1503 .def_1522))
(define-fun .def_1564 () Bool (and .def_1523 .def_1563))
(define-fun .def_1581 () Bool (and .def_1564 .def_1580))
(define-fun .def_1596 () Bool (and .def_1581 .def_1595))
(define-fun .def_1606 () Bool (and .def_1596 .def_1605))
(define-fun .def_1608 () Bool (and .def_1606 .def_1607))
(define-fun .def_1610 () Bool (and .def_1608 .def_1609))
(define-fun .def_1612 () Bool (and .def_1610 .def_1611))
(define-fun .def_1614 () Bool (and .def_1612 .def_1613))
(define-fun .def_1616 () Bool (and .def_1614 .def_1615))
(define-fun .def_1618 () Bool (and .def_1616 .def_1617))
(define-fun .def_1720 () Bool (and .def_1618 .def_1719))
(define-fun .def_1722 () Bool (and .def_1720 .def_1721))
(define-fun .def_1347 () Bool (<= param_init_invalid 0))
(define-fun .def_1348 () Bool (not .def_1347))
(define-fun .def_1350 () Bool (and .def_1348 call_excludes12.excludes))
(define-fun .def_1352 () Bool (= .def_1350 call_Sofar.flby))
(define-fun .def_1345 () Bool (= call__DRAGON_.flby4 0))
(define-fun .def_1342 () Bool (= call__DRAGON_.flby3 0))
(define-fun .def_1339 () Bool (= call__DRAGON_.flby2 0))
(define-fun .def_1336 () Bool (= param_init_invalid call__DRAGON_.flby))
(define-fun .def_1330 () Bool (= call__DRAGON_.ite37 0))
(define-fun .def_1323 () Bool (not call__DRAGON_.g08))
(define-fun .def_1331 () Bool (or .def_1323 .def_1330))
(define-fun .def_1326 () Bool (= call__DRAGON_.ite5 0))
(define-fun .def_1327 () Bool (or .def_1323 .def_1326))
(define-fun .def_1321 () Bool (= call__DRAGON_.ite25 1))
(define-fun .def_1324 () Bool (or .def_1321 .def_1323))
(define-fun .def_1328 () Bool (and .def_1324 .def_1327))
(define-fun .def_1332 () Bool (and .def_1328 .def_1331))
(define-fun .def_1317 () Bool (= call__DRAGON_.ite24 1))
(define-fun .def_1315 () Bool (not call__DRAGON_.g06))
(define-fun .def_1318 () Bool (or .def_1315 .def_1317))
(define-fun .def_1311 () Bool (= call__DRAGON_.ite13 0))
(define-fun .def_1309 () Bool (not call__DRAGON_.g05))
(define-fun .def_1312 () Bool (or .def_1309 .def_1311))
(define-fun .def_1305 () Bool (= call__DRAGON_.ite23 0))
(define-fun .def_1303 () Bool (not call__DRAGON_.g04))
(define-fun .def_1306 () Bool (or .def_1303 .def_1305))
(define-fun .def_1298 () Bool (= call__DRAGON_.ite3 0))
(define-fun .def_1295 () Bool (not call__DRAGON_.g02))
(define-fun .def_1299 () Bool (or .def_1295 .def_1298))
(define-fun .def_1293 () Bool (= call__DRAGON_.ite32 0))
(define-fun .def_1296 () Bool (or .def_1293 .def_1295))
(define-fun .def_1300 () Bool (and .def_1296 .def_1299))
(define-fun .def_1290 () Bool (= call__DRAGON_.flby6 call__DRAGON_.mem_init))
(define-fun .def_1286 () Bool (= call__DRAGON_.flby5 0))
(define-fun .def_1281 () Bool (= call__DRAGON_.ite53 call__DRAGON_.ite54))
(define-fun .def_1282 () Bool (or .def_1277 .def_1281))
(define-fun .def_1275 () Bool (= call__DRAGON_.ite6 call__DRAGON_.ite7))
(define-fun .def_1278 () Bool (or .def_1275 .def_1277))
(define-fun .def_1283 () Bool (and .def_1278 .def_1282))
(define-fun .def_1268 () Bool (= call__DRAGON_.ite26 call__DRAGON_.ite27))
(define-fun .def_1271 () Bool (or .def_1268 .def_1270))
(define-fun .def_1261 () Bool (= call__DRAGON_.ite16 call__DRAGON_.ite17))
(define-fun .def_1264 () Bool (or .def_1261 .def_1263))
(define-fun .def_1255 () Bool (= call__DRAGON_.ite38 call__DRAGON_.ite39))
(define-fun .def_1258 () Bool (or .def_1255 .def_1257))
(define-fun .def_1265 () Bool (and .def_1258 .def_1264))
(define-fun .def_1272 () Bool (and .def_1265 .def_1271))
(define-fun .def_1284 () Bool (and .def_1272 .def_1283))
(define-fun .def_1287 () Bool (and .def_1284 .def_1286))
(define-fun .def_1291 () Bool (and .def_1287 .def_1290))
(define-fun .def_1301 () Bool (and .def_1291 .def_1300))
(define-fun .def_1307 () Bool (and .def_1301 .def_1306))
(define-fun .def_1313 () Bool (and .def_1307 .def_1312))
(define-fun .def_1319 () Bool (and .def_1313 .def_1318))
(define-fun .def_1333 () Bool (and .def_1319 .def_1332))
(define-fun .def_1337 () Bool (and .def_1333 .def_1336))
(define-fun .def_1340 () Bool (and .def_1337 .def_1339))
(define-fun .def_1343 () Bool (and .def_1340 .def_1342))
(define-fun .def_1346 () Bool (and .def_1343 .def_1345))
(define-fun .def_1353 () Bool (and .def_1346 .def_1352))
(define-fun .def_1723 () Bool (and .def_1353 .def_1722))
(assert .def_1723)
